% Auto-generated by scripts/generate_dzn.py
% problem_type   = polyominoes
% instance       = polyominoes_95
% source_json    = instances_json/0_low_blowup/polyominoes_95.json
% blowup         = 0.6072234762979684
% representation = NFA

mode = 1;

size = 6;
tiles = 4;
n_expressions = 4;
Q = 153;
S = 5;
q0 = [1, 1, 1, 1];
F = [{12}, {25}, {20}, {25}];
weights = [6, 6, 10, 10, 2, 7, 4, 2, 9, 8, 10, 8, 7, 10, 10, 5, 9, 2, 8, 2, 6, 2, 7, 7, 9, 7, 10, 9, 1, 7, 8, 2, 5, 9, 6, 8];
d_dfa = array3d(1..4, 1..153, 1..5, [
  % k = 1
    0, 0, 0, 0, 0,
    0, 0, 0, 0, 0,
    0, 0, 0, 0, 0,
    0, 0, 0, 0, 0,
    0, 0, 0, 0, 0,
    0, 0, 0, 0, 0,
    0, 0, 0, 0, 0,
    0, 0, 0, 0, 0,
    0, 0, 0, 0, 0,
    0, 0, 0, 0, 0,
    0, 0, 0, 0, 0,
    0, 0, 0, 0, 0,
    0, 0, 0, 0, 0,
    0, 0, 0, 0, 0,
    0, 0, 0, 0, 0,
    0, 0, 0, 0, 0,
    0, 0, 0, 0, 0,
    0, 0, 0, 0, 0,
    0, 0, 0, 0, 0,
    0, 0, 0, 0, 0,
    0, 0, 0, 0, 0,
    0, 0, 0, 0, 0,
    0, 0, 0, 0, 0,
    0, 0, 0, 0, 0,
    0, 0, 0, 0, 0,
    0, 0, 0, 0, 0,
    0, 0, 0, 0, 0,
    0, 0, 0, 0, 0,
    0, 0, 0, 0, 0,
    0, 0, 0, 0, 0,
    0, 0, 0, 0, 0,
    0, 0, 0, 0, 0,
    0, 0, 0, 0, 0,
    0, 0, 0, 0, 0,
    0, 0, 0, 0, 0,
    0, 0, 0, 0, 0,
    0, 0, 0, 0, 0,
    0, 0, 0, 0, 0,
    0, 0, 0, 0, 0,
    0, 0, 0, 0, 0,
    0, 0, 0, 0, 0,
    0, 0, 0, 0, 0,
    0, 0, 0, 0, 0,
    0, 0, 0, 0, 0,
    0, 0, 0, 0, 0,
    0, 0, 0, 0, 0,
    0, 0, 0, 0, 0,
    0, 0, 0, 0, 0,
    0, 0, 0, 0, 0,
    0, 0, 0, 0, 0,
    0, 0, 0, 0, 0,
    0, 0, 0, 0, 0,
    0, 0, 0, 0, 0,
    0, 0, 0, 0, 0,
    0, 0, 0, 0, 0,
    0, 0, 0, 0, 0,
    0, 0, 0, 0, 0,
    0, 0, 0, 0, 0,
    0, 0, 0, 0, 0,
    0, 0, 0, 0, 0,
    0, 0, 0, 0, 0,
    0, 0, 0, 0, 0,
    0, 0, 0, 0, 0,
    0, 0, 0, 0, 0,
    0, 0, 0, 0, 0,
    0, 0, 0, 0, 0,
    0, 0, 0, 0, 0,
    0, 0, 0, 0, 0,
    0, 0, 0, 0, 0,
    0, 0, 0, 0, 0,
    0, 0, 0, 0, 0,
    0, 0, 0, 0, 0,
    0, 0, 0, 0, 0,
    0, 0, 0, 0, 0,
    0, 0, 0, 0, 0,
    0, 0, 0, 0, 0,
    0, 0, 0, 0, 0,
    0, 0, 0, 0, 0,
    0, 0, 0, 0, 0,
    0, 0, 0, 0, 0,
    0, 0, 0, 0, 0,
    0, 0, 0, 0, 0,
    0, 0, 0, 0, 0,
    0, 0, 0, 0, 0,
    0, 0, 0, 0, 0,
    0, 0, 0, 0, 0,
    0, 0, 0, 0, 0,
    0, 0, 0, 0, 0,
    0, 0, 0, 0, 0,
    0, 0, 0, 0, 0,
    0, 0, 0, 0, 0,
    0, 0, 0, 0, 0,
    0, 0, 0, 0, 0,
    0, 0, 0, 0, 0,
    0, 0, 0, 0, 0,
    0, 0, 0, 0, 0,
    0, 0, 0, 0, 0,
    0, 0, 0, 0, 0,
    0, 0, 0, 0, 0,
    0, 0, 0, 0, 0,
    0, 0, 0, 0, 0,
    0, 0, 0, 0, 0,
    0, 0, 0, 0, 0,
    0, 0, 0, 0, 0,
    0, 0, 0, 0, 0,
    0, 0, 0, 0, 0,
    0, 0, 0, 0, 0,
    0, 0, 0, 0, 0,
    0, 0, 0, 0, 0,
    0, 0, 0, 0, 0,
    0, 0, 0, 0, 0,
    0, 0, 0, 0, 0,
    0, 0, 0, 0, 0,
    0, 0, 0, 0, 0,
    0, 0, 0, 0, 0,
    0, 0, 0, 0, 0,
    0, 0, 0, 0, 0,
    0, 0, 0, 0, 0,
    0, 0, 0, 0, 0,
    0, 0, 0, 0, 0,
    0, 0, 0, 0, 0,
    0, 0, 0, 0, 0,
    0, 0, 0, 0, 0,
    0, 0, 0, 0, 0,
    0, 0, 0, 0, 0,
    0, 0, 0, 0, 0,
    0, 0, 0, 0, 0,
    0, 0, 0, 0, 0,
    0, 0, 0, 0, 0,
    0, 0, 0, 0, 0,
    0, 0, 0, 0, 0,
    0, 0, 0, 0, 0,
    0, 0, 0, 0, 0,
    0, 0, 0, 0, 0,
    0, 0, 0, 0, 0,
    0, 0, 0, 0, 0,
    0, 0, 0, 0, 0,
    0, 0, 0, 0, 0,
    0, 0, 0, 0, 0,
    0, 0, 0, 0, 0,
    0, 0, 0, 0, 0,
    0, 0, 0, 0, 0,
    0, 0, 0, 0, 0,
    0, 0, 0, 0, 0,
    0, 0, 0, 0, 0,
    0, 0, 0, 0, 0,
    0, 0, 0, 0, 0,
    0, 0, 0, 0, 0,
    0, 0, 0, 0, 0,
    0, 0, 0, 0, 0,
    0, 0, 0, 0, 0,
    0, 0, 0, 0, 0,
    0, 0, 0, 0, 0,

  % k = 2
    0, 0, 0, 0, 0,
    0, 0, 0, 0, 0,
    0, 0, 0, 0, 0,
    0, 0, 0, 0, 0,
    0, 0, 0, 0, 0,
    0, 0, 0, 0, 0,
    0, 0, 0, 0, 0,
    0, 0, 0, 0, 0,
    0, 0, 0, 0, 0,
    0, 0, 0, 0, 0,
    0, 0, 0, 0, 0,
    0, 0, 0, 0, 0,
    0, 0, 0, 0, 0,
    0, 0, 0, 0, 0,
    0, 0, 0, 0, 0,
    0, 0, 0, 0, 0,
    0, 0, 0, 0, 0,
    0, 0, 0, 0, 0,
    0, 0, 0, 0, 0,
    0, 0, 0, 0, 0,
    0, 0, 0, 0, 0,
    0, 0, 0, 0, 0,
    0, 0, 0, 0, 0,
    0, 0, 0, 0, 0,
    0, 0, 0, 0, 0,
    0, 0, 0, 0, 0,
    0, 0, 0, 0, 0,
    0, 0, 0, 0, 0,
    0, 0, 0, 0, 0,
    0, 0, 0, 0, 0,
    0, 0, 0, 0, 0,
    0, 0, 0, 0, 0,
    0, 0, 0, 0, 0,
    0, 0, 0, 0, 0,
    0, 0, 0, 0, 0,
    0, 0, 0, 0, 0,
    0, 0, 0, 0, 0,
    0, 0, 0, 0, 0,
    0, 0, 0, 0, 0,
    0, 0, 0, 0, 0,
    0, 0, 0, 0, 0,
    0, 0, 0, 0, 0,
    0, 0, 0, 0, 0,
    0, 0, 0, 0, 0,
    0, 0, 0, 0, 0,
    0, 0, 0, 0, 0,
    0, 0, 0, 0, 0,
    0, 0, 0, 0, 0,
    0, 0, 0, 0, 0,
    0, 0, 0, 0, 0,
    0, 0, 0, 0, 0,
    0, 0, 0, 0, 0,
    0, 0, 0, 0, 0,
    0, 0, 0, 0, 0,
    0, 0, 0, 0, 0,
    0, 0, 0, 0, 0,
    0, 0, 0, 0, 0,
    0, 0, 0, 0, 0,
    0, 0, 0, 0, 0,
    0, 0, 0, 0, 0,
    0, 0, 0, 0, 0,
    0, 0, 0, 0, 0,
    0, 0, 0, 0, 0,
    0, 0, 0, 0, 0,
    0, 0, 0, 0, 0,
    0, 0, 0, 0, 0,
    0, 0, 0, 0, 0,
    0, 0, 0, 0, 0,
    0, 0, 0, 0, 0,
    0, 0, 0, 0, 0,
    0, 0, 0, 0, 0,
    0, 0, 0, 0, 0,
    0, 0, 0, 0, 0,
    0, 0, 0, 0, 0,
    0, 0, 0, 0, 0,
    0, 0, 0, 0, 0,
    0, 0, 0, 0, 0,
    0, 0, 0, 0, 0,
    0, 0, 0, 0, 0,
    0, 0, 0, 0, 0,
    0, 0, 0, 0, 0,
    0, 0, 0, 0, 0,
    0, 0, 0, 0, 0,
    0, 0, 0, 0, 0,
    0, 0, 0, 0, 0,
    0, 0, 0, 0, 0,
    0, 0, 0, 0, 0,
    0, 0, 0, 0, 0,
    0, 0, 0, 0, 0,
    0, 0, 0, 0, 0,
    0, 0, 0, 0, 0,
    0, 0, 0, 0, 0,
    0, 0, 0, 0, 0,
    0, 0, 0, 0, 0,
    0, 0, 0, 0, 0,
    0, 0, 0, 0, 0,
    0, 0, 0, 0, 0,
    0, 0, 0, 0, 0,
    0, 0, 0, 0, 0,
    0, 0, 0, 0, 0,
    0, 0, 0, 0, 0,
    0, 0, 0, 0, 0,
    0, 0, 0, 0, 0,
    0, 0, 0, 0, 0,
    0, 0, 0, 0, 0,
    0, 0, 0, 0, 0,
    0, 0, 0, 0, 0,
    0, 0, 0, 0, 0,
    0, 0, 0, 0, 0,
    0, 0, 0, 0, 0,
    0, 0, 0, 0, 0,
    0, 0, 0, 0, 0,
    0, 0, 0, 0, 0,
    0, 0, 0, 0, 0,
    0, 0, 0, 0, 0,
    0, 0, 0, 0, 0,
    0, 0, 0, 0, 0,
    0, 0, 0, 0, 0,
    0, 0, 0, 0, 0,
    0, 0, 0, 0, 0,
    0, 0, 0, 0, 0,
    0, 0, 0, 0, 0,
    0, 0, 0, 0, 0,
    0, 0, 0, 0, 0,
    0, 0, 0, 0, 0,
    0, 0, 0, 0, 0,
    0, 0, 0, 0, 0,
    0, 0, 0, 0, 0,
    0, 0, 0, 0, 0,
    0, 0, 0, 0, 0,
    0, 0, 0, 0, 0,
    0, 0, 0, 0, 0,
    0, 0, 0, 0, 0,
    0, 0, 0, 0, 0,
    0, 0, 0, 0, 0,
    0, 0, 0, 0, 0,
    0, 0, 0, 0, 0,
    0, 0, 0, 0, 0,
    0, 0, 0, 0, 0,
    0, 0, 0, 0, 0,
    0, 0, 0, 0, 0,
    0, 0, 0, 0, 0,
    0, 0, 0, 0, 0,
    0, 0, 0, 0, 0,
    0, 0, 0, 0, 0,
    0, 0, 0, 0, 0,
    0, 0, 0, 0, 0,
    0, 0, 0, 0, 0,
    0, 0, 0, 0, 0,
    0, 0, 0, 0, 0,
    0, 0, 0, 0, 0,
    0, 0, 0, 0, 0,
    0, 0, 0, 0, 0,

  % k = 3
    0, 0, 0, 0, 0,
    0, 0, 0, 0, 0,
    0, 0, 0, 0, 0,
    0, 0, 0, 0, 0,
    0, 0, 0, 0, 0,
    0, 0, 0, 0, 0,
    0, 0, 0, 0, 0,
    0, 0, 0, 0, 0,
    0, 0, 0, 0, 0,
    0, 0, 0, 0, 0,
    0, 0, 0, 0, 0,
    0, 0, 0, 0, 0,
    0, 0, 0, 0, 0,
    0, 0, 0, 0, 0,
    0, 0, 0, 0, 0,
    0, 0, 0, 0, 0,
    0, 0, 0, 0, 0,
    0, 0, 0, 0, 0,
    0, 0, 0, 0, 0,
    0, 0, 0, 0, 0,
    0, 0, 0, 0, 0,
    0, 0, 0, 0, 0,
    0, 0, 0, 0, 0,
    0, 0, 0, 0, 0,
    0, 0, 0, 0, 0,
    0, 0, 0, 0, 0,
    0, 0, 0, 0, 0,
    0, 0, 0, 0, 0,
    0, 0, 0, 0, 0,
    0, 0, 0, 0, 0,
    0, 0, 0, 0, 0,
    0, 0, 0, 0, 0,
    0, 0, 0, 0, 0,
    0, 0, 0, 0, 0,
    0, 0, 0, 0, 0,
    0, 0, 0, 0, 0,
    0, 0, 0, 0, 0,
    0, 0, 0, 0, 0,
    0, 0, 0, 0, 0,
    0, 0, 0, 0, 0,
    0, 0, 0, 0, 0,
    0, 0, 0, 0, 0,
    0, 0, 0, 0, 0,
    0, 0, 0, 0, 0,
    0, 0, 0, 0, 0,
    0, 0, 0, 0, 0,
    0, 0, 0, 0, 0,
    0, 0, 0, 0, 0,
    0, 0, 0, 0, 0,
    0, 0, 0, 0, 0,
    0, 0, 0, 0, 0,
    0, 0, 0, 0, 0,
    0, 0, 0, 0, 0,
    0, 0, 0, 0, 0,
    0, 0, 0, 0, 0,
    0, 0, 0, 0, 0,
    0, 0, 0, 0, 0,
    0, 0, 0, 0, 0,
    0, 0, 0, 0, 0,
    0, 0, 0, 0, 0,
    0, 0, 0, 0, 0,
    0, 0, 0, 0, 0,
    0, 0, 0, 0, 0,
    0, 0, 0, 0, 0,
    0, 0, 0, 0, 0,
    0, 0, 0, 0, 0,
    0, 0, 0, 0, 0,
    0, 0, 0, 0, 0,
    0, 0, 0, 0, 0,
    0, 0, 0, 0, 0,
    0, 0, 0, 0, 0,
    0, 0, 0, 0, 0,
    0, 0, 0, 0, 0,
    0, 0, 0, 0, 0,
    0, 0, 0, 0, 0,
    0, 0, 0, 0, 0,
    0, 0, 0, 0, 0,
    0, 0, 0, 0, 0,
    0, 0, 0, 0, 0,
    0, 0, 0, 0, 0,
    0, 0, 0, 0, 0,
    0, 0, 0, 0, 0,
    0, 0, 0, 0, 0,
    0, 0, 0, 0, 0,
    0, 0, 0, 0, 0,
    0, 0, 0, 0, 0,
    0, 0, 0, 0, 0,
    0, 0, 0, 0, 0,
    0, 0, 0, 0, 0,
    0, 0, 0, 0, 0,
    0, 0, 0, 0, 0,
    0, 0, 0, 0, 0,
    0, 0, 0, 0, 0,
    0, 0, 0, 0, 0,
    0, 0, 0, 0, 0,
    0, 0, 0, 0, 0,
    0, 0, 0, 0, 0,
    0, 0, 0, 0, 0,
    0, 0, 0, 0, 0,
    0, 0, 0, 0, 0,
    0, 0, 0, 0, 0,
    0, 0, 0, 0, 0,
    0, 0, 0, 0, 0,
    0, 0, 0, 0, 0,
    0, 0, 0, 0, 0,
    0, 0, 0, 0, 0,
    0, 0, 0, 0, 0,
    0, 0, 0, 0, 0,
    0, 0, 0, 0, 0,
    0, 0, 0, 0, 0,
    0, 0, 0, 0, 0,
    0, 0, 0, 0, 0,
    0, 0, 0, 0, 0,
    0, 0, 0, 0, 0,
    0, 0, 0, 0, 0,
    0, 0, 0, 0, 0,
    0, 0, 0, 0, 0,
    0, 0, 0, 0, 0,
    0, 0, 0, 0, 0,
    0, 0, 0, 0, 0,
    0, 0, 0, 0, 0,
    0, 0, 0, 0, 0,
    0, 0, 0, 0, 0,
    0, 0, 0, 0, 0,
    0, 0, 0, 0, 0,
    0, 0, 0, 0, 0,
    0, 0, 0, 0, 0,
    0, 0, 0, 0, 0,
    0, 0, 0, 0, 0,
    0, 0, 0, 0, 0,
    0, 0, 0, 0, 0,
    0, 0, 0, 0, 0,
    0, 0, 0, 0, 0,
    0, 0, 0, 0, 0,
    0, 0, 0, 0, 0,
    0, 0, 0, 0, 0,
    0, 0, 0, 0, 0,
    0, 0, 0, 0, 0,
    0, 0, 0, 0, 0,
    0, 0, 0, 0, 0,
    0, 0, 0, 0, 0,
    0, 0, 0, 0, 0,
    0, 0, 0, 0, 0,
    0, 0, 0, 0, 0,
    0, 0, 0, 0, 0,
    0, 0, 0, 0, 0,
    0, 0, 0, 0, 0,
    0, 0, 0, 0, 0,
    0, 0, 0, 0, 0,
    0, 0, 0, 0, 0,
    0, 0, 0, 0, 0,
    0, 0, 0, 0, 0,
    0, 0, 0, 0, 0,

  % k = 4
    0, 0, 0, 0, 0,
    0, 0, 0, 0, 0,
    0, 0, 0, 0, 0,
    0, 0, 0, 0, 0,
    0, 0, 0, 0, 0,
    0, 0, 0, 0, 0,
    0, 0, 0, 0, 0,
    0, 0, 0, 0, 0,
    0, 0, 0, 0, 0,
    0, 0, 0, 0, 0,
    0, 0, 0, 0, 0,
    0, 0, 0, 0, 0,
    0, 0, 0, 0, 0,
    0, 0, 0, 0, 0,
    0, 0, 0, 0, 0,
    0, 0, 0, 0, 0,
    0, 0, 0, 0, 0,
    0, 0, 0, 0, 0,
    0, 0, 0, 0, 0,
    0, 0, 0, 0, 0,
    0, 0, 0, 0, 0,
    0, 0, 0, 0, 0,
    0, 0, 0, 0, 0,
    0, 0, 0, 0, 0,
    0, 0, 0, 0, 0,
    0, 0, 0, 0, 0,
    0, 0, 0, 0, 0,
    0, 0, 0, 0, 0,
    0, 0, 0, 0, 0,
    0, 0, 0, 0, 0,
    0, 0, 0, 0, 0,
    0, 0, 0, 0, 0,
    0, 0, 0, 0, 0,
    0, 0, 0, 0, 0,
    0, 0, 0, 0, 0,
    0, 0, 0, 0, 0,
    0, 0, 0, 0, 0,
    0, 0, 0, 0, 0,
    0, 0, 0, 0, 0,
    0, 0, 0, 0, 0,
    0, 0, 0, 0, 0,
    0, 0, 0, 0, 0,
    0, 0, 0, 0, 0,
    0, 0, 0, 0, 0,
    0, 0, 0, 0, 0,
    0, 0, 0, 0, 0,
    0, 0, 0, 0, 0,
    0, 0, 0, 0, 0,
    0, 0, 0, 0, 0,
    0, 0, 0, 0, 0,
    0, 0, 0, 0, 0,
    0, 0, 0, 0, 0,
    0, 0, 0, 0, 0,
    0, 0, 0, 0, 0,
    0, 0, 0, 0, 0,
    0, 0, 0, 0, 0,
    0, 0, 0, 0, 0,
    0, 0, 0, 0, 0,
    0, 0, 0, 0, 0,
    0, 0, 0, 0, 0,
    0, 0, 0, 0, 0,
    0, 0, 0, 0, 0,
    0, 0, 0, 0, 0,
    0, 0, 0, 0, 0,
    0, 0, 0, 0, 0,
    0, 0, 0, 0, 0,
    0, 0, 0, 0, 0,
    0, 0, 0, 0, 0,
    0, 0, 0, 0, 0,
    0, 0, 0, 0, 0,
    0, 0, 0, 0, 0,
    0, 0, 0, 0, 0,
    0, 0, 0, 0, 0,
    0, 0, 0, 0, 0,
    0, 0, 0, 0, 0,
    0, 0, 0, 0, 0,
    0, 0, 0, 0, 0,
    0, 0, 0, 0, 0,
    0, 0, 0, 0, 0,
    0, 0, 0, 0, 0,
    0, 0, 0, 0, 0,
    0, 0, 0, 0, 0,
    0, 0, 0, 0, 0,
    0, 0, 0, 0, 0,
    0, 0, 0, 0, 0,
    0, 0, 0, 0, 0,
    0, 0, 0, 0, 0,
    0, 0, 0, 0, 0,
    0, 0, 0, 0, 0,
    0, 0, 0, 0, 0,
    0, 0, 0, 0, 0,
    0, 0, 0, 0, 0,
    0, 0, 0, 0, 0,
    0, 0, 0, 0, 0,
    0, 0, 0, 0, 0,
    0, 0, 0, 0, 0,
    0, 0, 0, 0, 0,
    0, 0, 0, 0, 0,
    0, 0, 0, 0, 0,
    0, 0, 0, 0, 0,
    0, 0, 0, 0, 0,
    0, 0, 0, 0, 0,
    0, 0, 0, 0, 0,
    0, 0, 0, 0, 0,
    0, 0, 0, 0, 0,
    0, 0, 0, 0, 0,
    0, 0, 0, 0, 0,
    0, 0, 0, 0, 0,
    0, 0, 0, 0, 0,
    0, 0, 0, 0, 0,
    0, 0, 0, 0, 0,
    0, 0, 0, 0, 0,
    0, 0, 0, 0, 0,
    0, 0, 0, 0, 0,
    0, 0, 0, 0, 0,
    0, 0, 0, 0, 0,
    0, 0, 0, 0, 0,
    0, 0, 0, 0, 0,
    0, 0, 0, 0, 0,
    0, 0, 0, 0, 0,
    0, 0, 0, 0, 0,
    0, 0, 0, 0, 0,
    0, 0, 0, 0, 0,
    0, 0, 0, 0, 0,
    0, 0, 0, 0, 0,
    0, 0, 0, 0, 0,
    0, 0, 0, 0, 0,
    0, 0, 0, 0, 0,
    0, 0, 0, 0, 0,
    0, 0, 0, 0, 0,
    0, 0, 0, 0, 0,
    0, 0, 0, 0, 0,
    0, 0, 0, 0, 0,
    0, 0, 0, 0, 0,
    0, 0, 0, 0, 0,
    0, 0, 0, 0, 0,
    0, 0, 0, 0, 0,
    0, 0, 0, 0, 0,
    0, 0, 0, 0, 0,
    0, 0, 0, 0, 0,
    0, 0, 0, 0, 0,
    0, 0, 0, 0, 0,
    0, 0, 0, 0, 0,
    0, 0, 0, 0, 0,
    0, 0, 0, 0, 0,
    0, 0, 0, 0, 0,
    0, 0, 0, 0, 0,
    0, 0, 0, 0, 0,
    0, 0, 0, 0, 0,
    0, 0, 0, 0, 0,
    0, 0, 0, 0, 0,
    0, 0, 0, 0, 0,
    0, 0, 0, 0, 0
]);
d_nfa = array3d(1..4, 1..153, 1..5, [
  % k = 1
    {3, 14, 20, 28, 42, 45, 47, 49}, {2, 13, 19, 27, 41, 44, 46, 48}, {2, 13, 19, 27, 41, 44, 46, 48}, {2, 13, 19, 27, 41, 44, 46, 48}, {2, 13, 19, 27, 41, 44, 46, 48},
    {3}, {2}, {2}, {2}, {2},
    {4}, {}, {}, {}, {},
    {5}, {}, {}, {}, {},
    {}, {6}, {6}, {6}, {6},
    {}, {7}, {7}, {7}, {7},
    {}, {8}, {8}, {8}, {8},
    {}, {9}, {9}, {9}, {9},
    {}, {10}, {10}, {10}, {10},
    {11}, {}, {}, {}, {},
    {12}, {}, {}, {}, {},
    {}, {12}, {12}, {12}, {12},
    {14}, {13}, {13}, {13}, {13},
    {}, {15}, {15}, {15}, {15},
    {}, {16}, {16}, {16}, {16},
    {}, {17}, {17}, {17}, {17},
    {}, {18}, {18}, {18}, {18},
    {}, {3}, {3}, {3}, {3},
    {20}, {19}, {19}, {19}, {19},
    {21}, {}, {}, {}, {},
    {}, {22}, {22}, {22}, {22},
    {}, {23}, {23}, {23}, {23},
    {}, {24}, {24}, {24}, {24},
    {}, {25}, {25}, {25}, {25},
    {}, {26}, {26}, {26}, {26},
    {10}, {}, {}, {}, {},
    {28}, {27}, {27}, {27}, {27},
    {29}, {}, {}, {}, {},
    {}, {30}, {30}, {30}, {30},
    {}, {31}, {31}, {31}, {31},
    {}, {32}, {32}, {32}, {32},
    {}, {33}, {33}, {33}, {33},
    {}, {34}, {34}, {34}, {34},
    {35}, {}, {}, {}, {},
    {36}, {}, {}, {}, {},
    {}, {37}, {37}, {37}, {37},
    {}, {38}, {38}, {38}, {38},
    {}, {39}, {39}, {39}, {39},
    {}, {40}, {40}, {40}, {40},
    {}, {11}, {11}, {11}, {11},
    {42}, {41}, {41}, {41}, {41},
    {43}, {}, {}, {}, {},
    {6}, {}, {}, {}, {},
    {45}, {44}, {44}, {44}, {44},
    {}, {14}, {14}, {14}, {14},
    {47}, {46}, {46}, {46}, {46},
    {22}, {}, {}, {}, {},
    {49}, {48}, {48}, {48}, {48},
    {50}, {}, {}, {}, {},
    {}, {51}, {51}, {51}, {51},
    {}, {52}, {52}, {52}, {52},
    {}, {53}, {53}, {53}, {53},
    {}, {54}, {54}, {54}, {54},
    {}, {55}, {55}, {55}, {55},
    {56}, {}, {}, {}, {},
    {57}, {}, {}, {}, {},
    {}, {36}, {36}, {36}, {36},
    {}, {}, {}, {}, {},
    {}, {}, {}, {}, {},
    {}, {}, {}, {}, {},
    {}, {}, {}, {}, {},
    {}, {}, {}, {}, {},
    {}, {}, {}, {}, {},
    {}, {}, {}, {}, {},
    {}, {}, {}, {}, {},
    {}, {}, {}, {}, {},
    {}, {}, {}, {}, {},
    {}, {}, {}, {}, {},
    {}, {}, {}, {}, {},
    {}, {}, {}, {}, {},
    {}, {}, {}, {}, {},
    {}, {}, {}, {}, {},
    {}, {}, {}, {}, {},
    {}, {}, {}, {}, {},
    {}, {}, {}, {}, {},
    {}, {}, {}, {}, {},
    {}, {}, {}, {}, {},
    {}, {}, {}, {}, {},
    {}, {}, {}, {}, {},
    {}, {}, {}, {}, {},
    {}, {}, {}, {}, {},
    {}, {}, {}, {}, {},
    {}, {}, {}, {}, {},
    {}, {}, {}, {}, {},
    {}, {}, {}, {}, {},
    {}, {}, {}, {}, {},
    {}, {}, {}, {}, {},
    {}, {}, {}, {}, {},
    {}, {}, {}, {}, {},
    {}, {}, {}, {}, {},
    {}, {}, {}, {}, {},
    {}, {}, {}, {}, {},
    {}, {}, {}, {}, {},
    {}, {}, {}, {}, {},
    {}, {}, {}, {}, {},
    {}, {}, {}, {}, {},
    {}, {}, {}, {}, {},
    {}, {}, {}, {}, {},
    {}, {}, {}, {}, {},
    {}, {}, {}, {}, {},
    {}, {}, {}, {}, {},
    {}, {}, {}, {}, {},
    {}, {}, {}, {}, {},
    {}, {}, {}, {}, {},
    {}, {}, {}, {}, {},
    {}, {}, {}, {}, {},
    {}, {}, {}, {}, {},
    {}, {}, {}, {}, {},
    {}, {}, {}, {}, {},
    {}, {}, {}, {}, {},
    {}, {}, {}, {}, {},
    {}, {}, {}, {}, {},
    {}, {}, {}, {}, {},
    {}, {}, {}, {}, {},
    {}, {}, {}, {}, {},
    {}, {}, {}, {}, {},
    {}, {}, {}, {}, {},
    {}, {}, {}, {}, {},
    {}, {}, {}, {}, {},
    {}, {}, {}, {}, {},
    {}, {}, {}, {}, {},
    {}, {}, {}, {}, {},
    {}, {}, {}, {}, {},
    {}, {}, {}, {}, {},
    {}, {}, {}, {}, {},
    {}, {}, {}, {}, {},
    {}, {}, {}, {}, {},
    {}, {}, {}, {}, {},
    {}, {}, {}, {}, {},
    {}, {}, {}, {}, {},
    {}, {}, {}, {}, {},
    {}, {}, {}, {}, {},
    {}, {}, {}, {}, {},
    {}, {}, {}, {}, {},
    {}, {}, {}, {}, {},
    {}, {}, {}, {}, {},
    {}, {}, {}, {}, {},
    {}, {}, {}, {}, {},
    {}, {}, {}, {}, {},
    {}, {}, {}, {}, {},
    {}, {}, {}, {}, {},
    {}, {}, {}, {}, {},
    {}, {}, {}, {}, {},
    {}, {}, {}, {}, {},
    {}, {}, {}, {}, {},
    {}, {}, {}, {}, {},
    {}, {}, {}, {}, {},
    {}, {}, {}, {}, {},
    {}, {}, {}, {}, {},
    {}, {}, {}, {}, {},
    {}, {}, {}, {}, {},
    {}, {}, {}, {}, {},
    {}, {}, {}, {}, {},

  % k = 2
    {2, 26, 48, 69, 86, 104, 122, 132}, {3, 27, 49, 70, 87, 105, 123, 133}, {2, 26, 48, 69, 86, 104, 122, 132}, {2, 26, 48, 69, 86, 104, 122, 132}, {2, 26, 48, 69, 86, 104, 122, 132},
    {2}, {3}, {2}, {2}, {2},
    {}, {4}, {}, {}, {},
    {}, {5}, {}, {}, {},
    {6}, {}, {6}, {6}, {6},
    {7}, {}, {7}, {7}, {7},
    {8}, {}, {8}, {8}, {8},
    {9}, {}, {9}, {9}, {9},
    {}, {10}, {}, {}, {},
    {}, {11}, {}, {}, {},
    {}, {12}, {}, {}, {},
    {}, {13}, {}, {}, {},
    {14}, {}, {14}, {14}, {14},
    {15}, {}, {15}, {15}, {15},
    {16}, {}, {16}, {16}, {16},
    {}, {17}, {}, {}, {},
    {}, {18}, {}, {}, {},
    {}, {19}, {}, {}, {},
    {}, {20}, {}, {}, {},
    {21}, {}, {21}, {21}, {21},
    {22}, {}, {22}, {22}, {22},
    {23}, {}, {23}, {23}, {23},
    {24}, {}, {24}, {24}, {24},
    {}, {25}, {}, {}, {},
    {25}, {}, {25}, {25}, {25},
    {26}, {27}, {26}, {26}, {26},
    {}, {28}, {}, {}, {},
    {}, {29}, {}, {}, {},
    {30}, {}, {30}, {30}, {30},
    {31}, {}, {31}, {31}, {31},
    {32}, {}, {32}, {32}, {32},
    {}, {33}, {}, {}, {},
    {}, {34}, {}, {}, {},
    {}, {35}, {}, {}, {},
    {}, {36}, {}, {}, {},
    {37}, {}, {37}, {37}, {37},
    {38}, {}, {38}, {38}, {38},
    {39}, {}, {39}, {39}, {39},
    {40}, {}, {40}, {40}, {40},
    {}, {41}, {}, {}, {},
    {}, {42}, {}, {}, {},
    {}, {43}, {}, {}, {},
    {44}, {}, {44}, {44}, {44},
    {45}, {}, {45}, {45}, {45},
    {46}, {}, {46}, {46}, {46},
    {47}, {}, {47}, {47}, {47},
    {}, {24}, {}, {}, {},
    {48}, {49}, {48}, {48}, {48},
    {50}, {}, {50}, {50}, {50},
    {51}, {}, {51}, {51}, {51},
    {52}, {}, {52}, {52}, {52},
    {53}, {}, {53}, {53}, {53},
    {}, {54}, {}, {}, {},
    {}, {55}, {}, {}, {},
    {}, {56}, {}, {}, {},
    {}, {57}, {}, {}, {},
    {58}, {}, {58}, {58}, {58},
    {59}, {}, {59}, {59}, {59},
    {60}, {}, {60}, {60}, {60},
    {}, {61}, {}, {}, {},
    {}, {62}, {}, {}, {},
    {}, {63}, {}, {}, {},
    {}, {64}, {}, {}, {},
    {65}, {}, {65}, {65}, {65},
    {66}, {}, {66}, {66}, {66},
    {67}, {}, {67}, {67}, {67},
    {68}, {}, {68}, {68}, {68},
    {}, {47}, {}, {}, {},
    {69}, {70}, {69}, {69}, {69},
    {}, {71}, {}, {}, {},
    {72}, {}, {72}, {72}, {72},
    {73}, {}, {73}, {73}, {73},
    {74}, {}, {74}, {74}, {74},
    {75}, {}, {75}, {75}, {75},
    {}, {76}, {}, {}, {},
    {}, {77}, {}, {}, {},
    {}, {78}, {}, {}, {},
    {79}, {}, {79}, {79}, {79},
    {80}, {}, {80}, {80}, {80},
    {81}, {}, {81}, {81}, {81},
    {82}, {}, {82}, {82}, {82},
    {}, {83}, {}, {}, {},
    {}, {84}, {}, {}, {},
    {}, {85}, {}, {}, {},
    {}, {65}, {}, {}, {},
    {86}, {87}, {86}, {86}, {86},
    {}, {88}, {}, {}, {},
    {}, {89}, {}, {}, {},
    {90}, {}, {90}, {90}, {90},
    {91}, {}, {91}, {91}, {91},
    {92}, {}, {92}, {92}, {92},
    {}, {93}, {}, {}, {},
    {}, {94}, {}, {}, {},
    {}, {95}, {}, {}, {},
    {}, {96}, {}, {}, {},
    {97}, {}, {97}, {97}, {97},
    {98}, {}, {98}, {98}, {98},
    {99}, {}, {99}, {99}, {99},
    {}, {100}, {}, {}, {},
    {}, {101}, {}, {}, {},
    {}, {102}, {}, {}, {},
    {}, {103}, {}, {}, {},
    {20}, {}, {20}, {20}, {20},
    {104}, {105}, {104}, {104}, {104},
    {}, {106}, {}, {}, {},
    {}, {107}, {}, {}, {},
    {108}, {}, {108}, {108}, {108},
    {109}, {}, {109}, {109}, {109},
    {110}, {}, {110}, {110}, {110},
    {111}, {}, {111}, {111}, {111},
    {}, {112}, {}, {}, {},
    {}, {113}, {}, {}, {},
    {}, {114}, {}, {}, {},
    {}, {115}, {}, {}, {},
    {116}, {}, {116}, {116}, {116},
    {117}, {}, {117}, {117}, {117},
    {118}, {}, {118}, {118}, {118},
    {}, {119}, {}, {}, {},
    {}, {120}, {}, {}, {},
    {}, {121}, {}, {}, {},
    {43}, {}, {43}, {43}, {43},
    {122}, {123}, {122}, {122}, {122},
    {124}, {}, {124}, {124}, {124},
    {125}, {}, {125}, {125}, {125},
    {126}, {}, {126}, {126}, {126},
    {127}, {}, {127}, {127}, {127},
    {128}, {}, {128}, {128}, {128},
    {}, {129}, {}, {}, {},
    {}, {130}, {}, {}, {},
    {}, {131}, {}, {}, {},
    {}, {79}, {}, {}, {},
    {132}, {133}, {132}, {132}, {132},
    {}, {134}, {}, {}, {},
    {135}, {}, {135}, {135}, {135},
    {136}, {}, {136}, {136}, {136},
    {137}, {}, {137}, {137}, {137},
    {138}, {}, {138}, {138}, {138},
    {54}, {}, {54}, {54}, {54},
    {}, {}, {}, {}, {},
    {}, {}, {}, {}, {},
    {}, {}, {}, {}, {},
    {}, {}, {}, {}, {},
    {}, {}, {}, {}, {},
    {}, {}, {}, {}, {},
    {}, {}, {}, {}, {},
    {}, {}, {}, {}, {},
    {}, {}, {}, {}, {},
    {}, {}, {}, {}, {},
    {}, {}, {}, {}, {},
    {}, {}, {}, {}, {},
    {}, {}, {}, {}, {},
    {}, {}, {}, {}, {},
    {}, {}, {}, {}, {},

  % k = 3
    {2, 21, 50, 66, 93, 105, 115, 131}, {2, 21, 50, 66, 93, 105, 115, 131}, {3, 22, 51, 67, 94, 106, 116, 132}, {2, 21, 50, 66, 93, 105, 115, 131}, {2, 21, 50, 66, 93, 105, 115, 131},
    {2}, {2}, {3}, {2}, {2},
    {4}, {4}, {}, {4}, {4},
    {}, {}, {5}, {}, {},
    {}, {}, {6}, {}, {},
    {7}, {7}, {}, {7}, {7},
    {8}, {8}, {}, {8}, {8},
    {9}, {9}, {}, {9}, {9},
    {}, {}, {10}, {}, {},
    {}, {}, {11}, {}, {},
    {}, {}, {12}, {}, {},
    {}, {}, {13}, {}, {},
    {}, {}, {14}, {}, {},
    {15}, {15}, {}, {15}, {15},
    {16}, {16}, {}, {16}, {16},
    {}, {}, {17}, {}, {},
    {}, {}, {18}, {}, {},
    {}, {}, {19}, {}, {},
    {}, {}, {20}, {}, {},
    {20}, {20}, {}, {20}, {20},
    {21}, {21}, {22}, {21}, {21},
    {}, {}, {23}, {}, {},
    {}, {}, {24}, {}, {},
    {25}, {25}, {}, {25}, {25},
    {26}, {26}, {}, {26}, {26},
    {27}, {27}, {}, {27}, {27},
    {28}, {28}, {}, {28}, {28},
    {}, {}, {29}, {}, {},
    {}, {}, {30}, {}, {},
    {31}, {31}, {}, {31}, {31},
    {32}, {32}, {}, {32}, {32},
    {33}, {33}, {}, {33}, {33},
    {34}, {34}, {}, {34}, {34},
    {35}, {35}, {}, {35}, {35},
    {}, {}, {36}, {}, {},
    {}, {}, {37}, {}, {},
    {}, {}, {38}, {}, {},
    {39}, {39}, {}, {39}, {39},
    {40}, {40}, {}, {40}, {40},
    {41}, {41}, {}, {41}, {41},
    {42}, {42}, {}, {42}, {42},
    {}, {}, {43}, {}, {},
    {}, {}, {44}, {}, {},
    {}, {}, {45}, {}, {},
    {46}, {46}, {}, {46}, {46},
    {47}, {47}, {}, {47}, {47},
    {48}, {48}, {}, {48}, {48},
    {49}, {49}, {}, {49}, {49},
    {19}, {19}, {}, {19}, {19},
    {50}, {50}, {51}, {50}, {50},
    {}, {}, {52}, {}, {},
    {}, {}, {53}, {}, {},
    {}, {}, {54}, {}, {},
    {55}, {55}, {}, {55}, {55},
    {56}, {56}, {}, {56}, {56},
    {}, {}, {57}, {}, {},
    {}, {}, {58}, {}, {},
    {}, {}, {59}, {}, {},
    {}, {}, {60}, {}, {},
    {}, {}, {61}, {}, {},
    {62}, {62}, {}, {62}, {62},
    {63}, {63}, {}, {63}, {63},
    {64}, {64}, {}, {64}, {64},
    {}, {}, {65}, {}, {},
    {}, {}, {49}, {}, {},
    {66}, {66}, {67}, {66}, {66},
    {68}, {68}, {}, {68}, {68},
    {69}, {69}, {}, {69}, {69},
    {70}, {70}, {}, {70}, {70},
    {71}, {71}, {}, {71}, {71},
    {72}, {72}, {}, {72}, {72},
    {}, {}, {73}, {}, {},
    {}, {}, {74}, {}, {},
    {}, {}, {75}, {}, {},
    {76}, {76}, {}, {76}, {76},
    {77}, {77}, {}, {77}, {77},
    {78}, {78}, {}, {78}, {78},
    {79}, {79}, {}, {79}, {79},
    {}, {}, {80}, {}, {},
    {}, {}, {81}, {}, {},
    {}, {}, {82}, {}, {},
    {83}, {83}, {}, {83}, {83},
    {84}, {84}, {}, {84}, {84},
    {85}, {85}, {}, {85}, {85},
    {86}, {86}, {}, {86}, {86},
    {87}, {87}, {}, {87}, {87},
    {}, {}, {88}, {}, {},
    {}, {}, {89}, {}, {},
    {90}, {90}, {}, {90}, {90},
    {91}, {91}, {}, {91}, {91},
    {92}, {92}, {}, {92}, {92},
    {17}, {17}, {}, {17}, {17},
    {93}, {93}, {94}, {93}, {93},
    {}, {}, {95}, {}, {},
    {96}, {96}, {}, {96}, {96},
    {}, {}, {97}, {}, {},
    {98}, {98}, {}, {98}, {98},
    {99}, {99}, {}, {99}, {99},
    {}, {}, {100}, {}, {},
    {}, {}, {101}, {}, {},
    {}, {}, {102}, {}, {},
    {}, {}, {103}, {}, {},
    {}, {}, {104}, {}, {},
    {14}, {14}, {}, {14}, {14},
    {105}, {105}, {106}, {105}, {105},
    {}, {}, {107}, {}, {},
    {}, {}, {108}, {}, {},
    {109}, {109}, {}, {109}, {109},
    {110}, {110}, {}, {110}, {110},
    {111}, {111}, {}, {111}, {111},
    {112}, {112}, {}, {112}, {112},
    {113}, {113}, {}, {113}, {113},
    {}, {}, {114}, {}, {},
    {}, {}, {31}, {}, {},
    {115}, {115}, {116}, {115}, {115},
    {}, {}, {117}, {}, {},
    {}, {}, {118}, {}, {},
    {}, {}, {119}, {}, {},
    {120}, {120}, {}, {120}, {120},
    {121}, {121}, {}, {121}, {121},
    {122}, {122}, {}, {122}, {122},
    {}, {}, {123}, {}, {},
    {}, {}, {124}, {}, {},
    {}, {}, {125}, {}, {},
    {}, {}, {126}, {}, {},
    {}, {}, {127}, {}, {},
    {128}, {128}, {}, {128}, {128},
    {129}, {129}, {}, {129}, {129},
    {}, {}, {130}, {}, {},
    {18}, {18}, {}, {18}, {18},
    {131}, {131}, {132}, {131}, {131},
    {133}, {133}, {}, {133}, {133},
    {134}, {134}, {}, {134}, {134},
    {135}, {135}, {}, {135}, {135},
    {136}, {136}, {}, {136}, {136},
    {137}, {137}, {}, {137}, {137},
    {}, {}, {138}, {}, {},
    {}, {}, {139}, {}, {},
    {}, {}, {140}, {}, {},
    {141}, {141}, {}, {141}, {141},
    {142}, {142}, {}, {142}, {142},
    {143}, {143}, {}, {143}, {143},
    {144}, {144}, {}, {144}, {144},
    {}, {}, {145}, {}, {},
    {}, {}, {146}, {}, {},
    {}, {}, {147}, {}, {},
    {148}, {148}, {}, {148}, {148},
    {149}, {149}, {}, {149}, {149},
    {150}, {150}, {}, {150}, {150},
    {151}, {151}, {}, {151}, {151},
    {}, {}, {152}, {}, {},
    {}, {}, {153}, {}, {},
    {89}, {89}, {}, {89}, {89},

  % k = 4
    {2, 26, 35, 50, 60, 76, 79, 88}, {2, 26, 35, 50, 60, 76, 79, 88}, {2, 26, 35, 50, 60, 76, 79, 88}, {3, 27, 36, 51, 61, 77, 80, 89}, {2, 26, 35, 50, 60, 76, 79, 88},
    {2}, {2}, {2}, {3}, {2},
    {}, {}, {}, {4}, {},
    {5}, {5}, {5}, {}, {5},
    {6}, {6}, {6}, {}, {6},
    {7}, {7}, {7}, {}, {7},
    {8}, {8}, {8}, {}, {8},
    {9}, {9}, {9}, {}, {9},
    {}, {}, {}, {10}, {},
    {}, {}, {}, {11}, {},
    {12}, {12}, {12}, {}, {12},
    {13}, {13}, {13}, {}, {13},
    {14}, {14}, {14}, {}, {14},
    {15}, {15}, {15}, {}, {15},
    {16}, {16}, {16}, {}, {16},
    {17}, {17}, {17}, {}, {17},
    {}, {}, {}, {18}, {},
    {19}, {19}, {19}, {}, {19},
    {20}, {20}, {20}, {}, {20},
    {21}, {21}, {21}, {}, {21},
    {22}, {22}, {22}, {}, {22},
    {23}, {23}, {23}, {}, {23},
    {}, {}, {}, {24}, {},
    {}, {}, {}, {25}, {},
    {25}, {25}, {25}, {}, {25},
    {26}, {26}, {26}, {27}, {26},
    {28}, {28}, {28}, {}, {28},
    {}, {}, {}, {29}, {},
    {}, {}, {}, {30}, {},
    {31}, {31}, {31}, {}, {31},
    {32}, {32}, {32}, {}, {32},
    {33}, {33}, {33}, {}, {33},
    {}, {}, {}, {34}, {},
    {}, {}, {}, {23}, {},
    {35}, {35}, {35}, {36}, {35},
    {}, {}, {}, {37}, {},
    {38}, {38}, {38}, {}, {38},
    {39}, {39}, {39}, {}, {39},
    {40}, {40}, {40}, {}, {40},
    {41}, {41}, {41}, {}, {41},
    {42}, {42}, {42}, {}, {42},
    {}, {}, {}, {43}, {},
    {44}, {44}, {44}, {}, {44},
    {45}, {45}, {45}, {}, {45},
    {46}, {46}, {46}, {}, {46},
    {47}, {47}, {47}, {}, {47},
    {48}, {48}, {48}, {}, {48},
    {49}, {49}, {49}, {}, {49},
    {}, {}, {}, {17}, {},
    {50}, {50}, {50}, {51}, {50},
    {}, {}, {}, {52}, {},
    {}, {}, {}, {53}, {},
    {}, {}, {}, {54}, {},
    {55}, {55}, {55}, {}, {55},
    {56}, {56}, {56}, {}, {56},
    {57}, {57}, {57}, {}, {57},
    {}, {}, {}, {58}, {},
    {}, {}, {}, {59}, {},
    {24}, {24}, {24}, {}, {24},
    {60}, {60}, {60}, {61}, {60},
    {}, {}, {}, {62}, {},
    {63}, {63}, {63}, {}, {63},
    {64}, {64}, {64}, {}, {64},
    {65}, {65}, {65}, {}, {65},
    {66}, {66}, {66}, {}, {66},
    {67}, {67}, {67}, {}, {67},
    {}, {}, {}, {68}, {},
    {}, {}, {}, {69}, {},
    {70}, {70}, {70}, {}, {70},
    {71}, {71}, {71}, {}, {71},
    {72}, {72}, {72}, {}, {72},
    {73}, {73}, {73}, {}, {73},
    {74}, {74}, {74}, {}, {74},
    {}, {}, {}, {75}, {},
    {18}, {18}, {18}, {}, {18},
    {76}, {76}, {76}, {77}, {76},
    {}, {}, {}, {78}, {},
    {29}, {29}, {29}, {}, {29},
    {79}, {79}, {79}, {80}, {79},
    {}, {}, {}, {81}, {},
    {82}, {82}, {82}, {}, {82},
    {83}, {83}, {83}, {}, {83},
    {84}, {84}, {84}, {}, {84},
    {85}, {85}, {85}, {}, {85},
    {86}, {86}, {86}, {}, {86},
    {87}, {87}, {87}, {}, {87},
    {}, {}, {}, {44}, {},
    {88}, {88}, {88}, {89}, {88},
    {}, {}, {}, {90}, {},
    {}, {}, {}, {91}, {},
    {}, {}, {}, {92}, {},
    {93}, {93}, {93}, {}, {93},
    {94}, {94}, {94}, {}, {94},
    {95}, {95}, {95}, {}, {95},
    {}, {}, {}, {22}, {},
    {}, {}, {}, {}, {},
    {}, {}, {}, {}, {},
    {}, {}, {}, {}, {},
    {}, {}, {}, {}, {},
    {}, {}, {}, {}, {},
    {}, {}, {}, {}, {},
    {}, {}, {}, {}, {},
    {}, {}, {}, {}, {},
    {}, {}, {}, {}, {},
    {}, {}, {}, {}, {},
    {}, {}, {}, {}, {},
    {}, {}, {}, {}, {},
    {}, {}, {}, {}, {},
    {}, {}, {}, {}, {},
    {}, {}, {}, {}, {},
    {}, {}, {}, {}, {},
    {}, {}, {}, {}, {},
    {}, {}, {}, {}, {},
    {}, {}, {}, {}, {},
    {}, {}, {}, {}, {},
    {}, {}, {}, {}, {},
    {}, {}, {}, {}, {},
    {}, {}, {}, {}, {},
    {}, {}, {}, {}, {},
    {}, {}, {}, {}, {},
    {}, {}, {}, {}, {},
    {}, {}, {}, {}, {},
    {}, {}, {}, {}, {},
    {}, {}, {}, {}, {},
    {}, {}, {}, {}, {},
    {}, {}, {}, {}, {},
    {}, {}, {}, {}, {},
    {}, {}, {}, {}, {},
    {}, {}, {}, {}, {},
    {}, {}, {}, {}, {},
    {}, {}, {}, {}, {},
    {}, {}, {}, {}, {},
    {}, {}, {}, {}, {},
    {}, {}, {}, {}, {},
    {}, {}, {}, {}, {},
    {}, {}, {}, {}, {},
    {}, {}, {}, {}, {},
    {}, {}, {}, {}, {},
    {}, {}, {}, {}, {},
    {}, {}, {}, {}, {},
    {}, {}, {}, {}, {},
    {}, {}, {}, {}, {},
    {}, {}, {}, {}, {},
    {}, {}, {}, {}, {},
    {}, {}, {}, {}, {},
    {}, {}, {}, {}, {},
    {}, {}, {}, {}, {},
    {}, {}, {}, {}, {},
    {}, {}, {}, {}, {},
    {}, {}, {}, {}, {},
    {}, {}, {}, {}, {},
    {}, {}, {}, {}, {},
    {}, {}, {}, {}, {}
]);
